(declare-const x Int)
(declare-const y Int)
(declare-const z Int)
(assert (= (+ x y z) 100))
(check-sat)
(get-model)
(assert (= x 75))
(assert-soft (= y 25) :weight 2)
(assert-soft (= z 25) :weight 1)
(check-sat)
(get-model)
